132
40
172
0
43
53
100
145
83
104
85
85
132
65
60
30
96
113
77
94
97
184
59
69
259
140
228
69
132
75
40
179
98
106
49
90
55
138
376
153
67
80
82
83
89
144
58
106
322
94
92
154
85
115
170
213
62
96
136
97
110
96
101
69
71
210
37
79
0
45
0
96
81
76
48
276
206
68
45
76
59
88
580
133
157
98
53
143
85
69
112
209
147
40
112
126
40
90
153
86
